 ! --------------------------------------------------- CP Optimizer 22.1.1.0 --
 ! Satisfiability problem - 22200 variables, 192723 constraints
 ! Presolve      : 13500 extractables eliminated
 ! TimeLimit            = 3600
 ! Workers              = 1
 ! Initial process time : 1.50s (1.50s extraction + 0.01s propagation)
 !  . Log search space  : 226812.3 (before), 226812.3 (after)
 !  . Memory usage      : 153.0 MB (before), 153.0 MB (after)
 ! Using sequential search.
 ! ----------------------------------------------------------------------------
 !               Branches  Non-fixed            Branch decision
                     1019      20799        F          presenceOf(copy_trips:2_0)
                     2000      14442                   presenceOf(copy_lane_parking:5_154)
                     3000       7842                   presenceOf(copy_lane_parking:1_197)
                     4000      17024                  !presenceOf(copy_bus_parking:10_32)
                     5000       7826            268 != endOf(start_parking:24)
                     6000      14133                  !presenceOf(copy_trips:26_221)
                     7000      14136                  !presenceOf(copy_trips:2_37)
                     8000      14133                   presenceOf(copy_lane_parking:5_114)
                     9000      14130                   presenceOf(copy_lane_parking:5_26)
                    10000       7733                   presenceOf(copy_bus_parking:26_164)
                    11000      14142                   presenceOf(copy_lane_parking:5_156)
                    12000      14151        F          presenceOf(copy_bus_parking:3_222)
                    13000      10594        F          presenceOf(copy_bus_parking:20_39)
                    14000      10591                  !presenceOf(copy_bus_parking:3_222)
                    15000      10361        F          presenceOf(copy_trips:8_32)
                    16000      10361        F          presenceOf(copy_trips:25_0)
                    17000      19296        F         !presenceOf(copy_trips:4_0)
                    18000      14166        F          presenceOf(copy_trips:18_221)
                    19000      14148                  !presenceOf(copy_bus_parking:13_222)
                    20000      14154                  !presenceOf(copy_bus_parking:19_37)
 ! Time = 13.10s, Average fail depth = 255, Memory usage = 474.3 MB
 !               Branches  Non-fixed            Branch decision
                    21000      17079        F          presenceOf(copy_bus_parking:29_37)
                    22000      17047        F         !presenceOf(copy_bus_parking:27_37)
                    23000      14151                  !presenceOf(copy_bus_parking:9_221)
                    24000      14148        F          presenceOf(copy_bus_parking:11_221)
                    25000      14145                  !presenceOf(copy_bus_parking:18_222)
                    26000      14145        F          presenceOf(copy_bus_parking:24_220)
                    27000      14145                  !presenceOf(copy_bus_parking:12_222)
                    28000      12294                   presenceOf(copy_lane_parking:1_109)
                    29000      14136        F          presenceOf(copy_trips:3_221)
                    30000      14148                   presenceOf(copy_lane_parking:2_87)
                    31000      14139                  !presenceOf(copy_trips:11_221)
                    32000      14139                   presenceOf(copy_bus_parking:9_220)
                    33000      14139                  !presenceOf(copy_trips:10_221)
                    34000      14145                  !presenceOf(copy_trips:19_222)
                    35000      14145        F          presenceOf(copy_trips:1_0)
                    36000      18488                   presenceOf(copy_bus_parking:14_176)
                    37000      14142                   presenceOf(copy_lane_parking:1_28)
                    38000      16954        F          presenceOf(copy_trips:23_0)
                    39000      16974                  !presenceOf(copy_bus_parking:2_38)
                    40000      14139                  !presenceOf(copy_bus_parking:25_221)
 ! Time = 23.37s, Average fail depth = 258, Memory usage = 474.3 MB
 !               Branches  Non-fixed            Branch decision
                    41000      14142                   presenceOf(copy_trips:2_192)
                    42000      14148                   presenceOf(copy_lane_parking:5_136)
                    43000      14163                  !presenceOf(copy_trips:23_221)
                    44000      14160                  !presenceOf(copy_trips:14_6)
                    45000      19815                  !presenceOf(copy_trips:16_6)
                    46000      19815                   presenceOf(copy_bus_parking:29_4)
                    47000      16930        F          presenceOf(copy_trips:9_29)
                    48000      14148                  !presenceOf(copy_trips:20_220)
                    49000      14145        F         !presenceOf(copy_bus_parking:26_221)
                    50000      14142        F          presenceOf(copy_trips:20_222)
                    51000      14142        F         !presenceOf(copy_bus_parking:26_221)
                    52000      14145                   presenceOf(copy_trips:1_222)
                    53000      14142        F          presenceOf(copy_trips:29_222)
                    54000      14142        F          presenceOf(copy_trips:16_222)
                    55000      14145        F          presenceOf(copy_trips:12_222)
                    56000      14145        F          presenceOf(copy_trips:3_222)
                    57000      14145                   presenceOf(copy_trips:9_222)
                    58000      14145                  !presenceOf(copy_trips:26_220)
                    59000      14145        F          presenceOf(copy_bus_parking:19_223)
                    60000      14148        F          presenceOf(copy_trips:29_222)
 ! Time = 30.86s, Average fail depth = 270, Memory usage = 474.3 MB
 !               Branches  Non-fixed            Branch decision
                    61000      14136        F          presenceOf(copy_trips:25_221)
                    62000      14154                   presenceOf(copy_lane_parking:1_214)
                    63000      14145                   presenceOf(copy_lane_parking:0_11)
                    64000      12797        F          presenceOf(copy_bus_parking:3_218)
                    65000      12952                   presenceOf(copy_bus_parking:5_113)
                    66000       7727        F          presenceOf(copy_trips:10_65)
                    67000      16854        F          presenceOf(copy_trips:11_68)
                    68000      16773                  !presenceOf(copy_trips:4_68)
                    69000      16773                   presenceOf(copy_lane_parking:1_43)
                    70000      11112        F          presenceOf(copy_bus_parking:8_44)
                    71000       7612                   presenceOf(copy_lane_parking:4_158)
                    72000      10838                  !presenceOf(copy_trips:2_3)
                    73000      16895                   presenceOf(copy_bus_parking:11_64)
                    74000      11331                  !presenceOf(copy_bus_parking:29_40)
                    75000      11328                  !presenceOf(copy_bus_parking:19_40)
                    76000      11331                  !presenceOf(copy_bus_parking:16_40)
                    77000      11328                   presenceOf(copy_lane_parking:1_105)
                    78000       7530                  !presenceOf(copy_bus_parking:11_222)
                    79000       7521        F          presenceOf(copy_bus_parking:16_37)
                    80000      17044                   presenceOf(copy_bus_parking:16_181)
 ! Time = 39.57s, Average fail depth = 276, Memory usage = 474.3 MB
 !               Branches  Non-fixed            Branch decision
                    81000      11445        F          presenceOf(copy_bus_parking:27_36)
                    82000      11445        F          presenceOf(copy_bus_parking:8_36)
                    83000      11445                  !presenceOf(copy_bus_parking:24_56)
                    84000      11445                  !presenceOf(copy_bus_parking:24_56)
                    85000      11445                  !presenceOf(copy_bus_parking:24_56)
                    86000      11445        F         !presenceOf(copy_bus_parking:16_56)
                    87000      11445                  !presenceOf(copy_bus_parking:11_56)
                    88000      11445                   presenceOf(copy_bus_parking:20_36)
                    89000      11445                  !presenceOf(copy_bus_parking:27_56)
                    90000      11445                  !presenceOf(copy_bus_parking:8_36)
                    91000      11445                  !presenceOf(copy_bus_parking:11_56)
                    92000      11445                  !presenceOf(copy_bus_parking:8_56)
                    93000      11445                  !presenceOf(copy_bus_parking:11_56)
                    94000      11445                  !presenceOf(copy_bus_parking:8_221)
                    95000      14148                   presenceOf(copy_lane_parking:5_141)
                    96000      12339        F          presenceOf(copy_trips:18_37)
                    97000      16930        F          presenceOf(copy_trips:13_42)
                    98000      15143                   presenceOf(copy_lane_parking:2_217)
                    99000      14145        F          presenceOf(copy_trips:5_33)
                     100k      11210                  !presenceOf(copy_bus_parking:28_44)
 ! Time = 52.32s, Average fail depth = 283, Memory usage = 474.6 MB
 !               Branches  Non-fixed            Branch decision
                     101k      10996        F          presenceOf(copy_bus_parking:25_45)
                     102k      10996                   presenceOf(copy_trips:18_47)
                     103k      10996                  !presenceOf(copy_bus_parking:25_45)
                     104k      10996        F          presenceOf(copy_bus_parking:22_29)
                     105k      17038        F          presenceOf(copy_bus_parking:8_29)
                     106k      17023        F          presenceOf(copy_bus_parking:6_29)
                     107k      17026        F          presenceOf(copy_bus_parking:18_29)
                     108k      17023        F          presenceOf(copy_bus_parking:8_29)
                     109k      17026        F          presenceOf(copy_bus_parking:2_29)
                     110k      17023        F          presenceOf(copy_bus_parking:18_29)
                     111k      17026        F          presenceOf(copy_bus_parking:8_29)
                     112k      17020        F          presenceOf(copy_bus_parking:7_29)
                     113k      17020                  !presenceOf(copy_bus_parking:28_32)
                     114k      17020                  !presenceOf(copy_bus_parking:10_29)
                     115k      17026        F          presenceOf(copy_bus_parking:8_29)
                     116k      17029        F          presenceOf(copy_bus_parking:18_29)
                     117k      12946                  !presenceOf(copy_bus_parking:6_2)
                     118k      12972        F          presenceOf(copy_trips:8_0)
                     119k      14598                  !presenceOf(copy_bus_parking:18_66)
                     120k      14598        F         !presenceOf(copy_bus_parking:3_68)
 ! Time = 66.30s, Average fail depth = 282, Memory usage = 474.6 MB
 !               Branches  Non-fixed            Branch decision
                     121k      14362        F          presenceOf(copy_bus_parking:4_68)
                     122k      14362                  !presenceOf(copy_bus_parking:2_67)
                     123k      14365        F          presenceOf(copy_bus_parking:4_68)
                     124k      14362                  !presenceOf(copy_trips:29_74)
                     125k      14362                  !presenceOf(copy_bus_parking:8_64)
                     126k      14598        F          presenceOf(copy_bus_parking:25_68)
                     127k      14598                  !presenceOf(copy_bus_parking:27_64)
                     128k      14598        F          presenceOf(copy_bus_parking:19_68)
                     129k      14362                  !presenceOf(copy_bus_parking:1_64)
                     130k      14362                  !presenceOf(copy_trips:18_74)
                     131k      14362        F          presenceOf(copy_bus_parking:4_68)
                     132k      14362        F          presenceOf(copy_trips:1_74)
                     133k      14362        F          presenceOf(copy_trips:14_74)
                     134k      14362                  !presenceOf(copy_bus_parking:4_68)
                     135k      14598                  !presenceOf(copy_bus_parking:16_64)
                     136k      14362                  !presenceOf(copy_bus_parking:19_68)
                     137k      14362                  !presenceOf(copy_trips:18_74)
                     138k      14362                  !presenceOf(copy_bus_parking:8_68)
                     139k      14371        F          presenceOf(copy_trips:1_74)
                     140k      14362                   presenceOf(copy_bus_parking:3_65)
 ! Time = 71.25s, Average fail depth = 284, Memory usage = 474.6 MB
 !               Branches  Non-fixed            Branch decision
                     141k      14598        F          presenceOf(copy_bus_parking:16_64)
                     142k      14598        F         !presenceOf(copy_bus_parking:3_68)
                     143k      14598                  !presenceOf(copy_bus_parking:23_64)
                     144k      14598        F          presenceOf(copy_bus_parking:19_68)
                     145k      14598                  !presenceOf(copy_bus_parking:8_68)
                     146k      14362                  !presenceOf(copy_bus_parking:8_68)
                     147k      14362        F          presenceOf(copy_trips:18_74)
                     148k      14368        F          presenceOf(copy_bus_parking:25_68)
                     149k      14362        F         !presenceOf(copy_trips:29_74)
                     150k      14362                  !presenceOf(copy_bus_parking:5_65)
                     151k      14598                   presenceOf(copy_bus_parking:3_66)
                     152k      14598        F          presenceOf(copy_bus_parking:2_68)
                     153k      14598                  !presenceOf(copy_bus_parking:18_66)
                     154k      14598                  !presenceOf(copy_bus_parking:1_66)
                     155k      14598        F          presenceOf(copy_bus_parking:8_66)
                     156k      14598        F          presenceOf(copy_bus_parking:8_66)
                     157k      14598        F          presenceOf(copy_bus_parking:5_66)
                     158k      14362        F         !presenceOf(copy_trips:1_74)
                     159k      14362        F          presenceOf(copy_trips:14_74)
                     160k      14362                  !presenceOf(copy_bus_parking:27_64)
 ! Time = 76.00s, Average fail depth = 285, Memory usage = 474.6 MB
 !               Branches  Non-fixed            Branch decision
                     161k      14598                  !presenceOf(copy_bus_parking:8_64)
                     162k      14362        F          presenceOf(copy_trips:14_74)
                     163k      14362        F          presenceOf(copy_trips:14_74)
                     164k      14368                  !presenceOf(copy_bus_parking:8_68)
                     165k      14362                  !presenceOf(copy_bus_parking:1_64)
                     166k      14362                  !presenceOf(copy_bus_parking:0_67)
                     167k      14362        F          presenceOf(copy_bus_parking:8_66)
                     168k      14596        F          presenceOf(copy_bus_parking:8_68)
                     169k      14362                   presenceOf(copy_trips:11_174)
                     170k      14145        F          presenceOf(copy_bus_parking:13_221)
                     171k      14142                   presenceOf(copy_bus_parking:21_221)
                     172k      14139                  !presenceOf(copy_bus_parking:27_220)
                     173k      11719                   presenceOf(copy_lane_parking:1_106)
                     174k      11218        F          presenceOf(copy_bus_parking:18_41)
                     175k      11218        F          presenceOf(copy_trips:0_0)
                     176k      19817                   presenceOf(copy_trips:13_120)
                     177k       7725        F          presenceOf(copy_trips:15_220)
                     178k       7725                   presenceOf(copy_lane_parking:5_86)
                     179k       7539                  !presenceOf(copy_bus_parking:20_220)
                     180k       7521        F          presenceOf(copy_bus_parking:7_29)
 ! Time = 83.49s, Average fail depth = 286, Memory usage = 474.6 MB
 !               Branches  Non-fixed            Branch decision
                     181k      12939        F         !presenceOf(copy_trips:18_29)
                     182k      14139        F          presenceOf(copy_bus_parking:8_222)
                     183k      14139        F          presenceOf(copy_trips:9_37)
                     184k      16951        F          presenceOf(copy_trips:14_37)
                     185k      16999                  !presenceOf(copy_bus_parking:12_32)
                     186k      16996                   presenceOf(copy_lane_parking:3_216)
                     187k      14145                  !presenceOf(copy_trips:0_37)
                     188k      16954                  !presenceOf(copy_trips:1_37)
                     189k      16954                  !presenceOf(copy_trips:8_37)
                     190k      16954                  !presenceOf(copy_trips:0_37)
                     191k      14145                   presenceOf(copy_lane_parking:0_156)
                     192k      19456                   presenceOf(copy_bus_parking:9_3)
                     193k      19666        F          presenceOf(copy_trips:23_0)
                     194k      11683                   presenceOf(copy_lane_parking:4_76)
                     195k      11616        F          presenceOf(copy_trips:24_221)
                     196k      14145        F          presenceOf(copy_trips:2_29)
                     197k       7736        F          presenceOf(copy_trips:12_220)
                     198k       7736        F          presenceOf(copy_trips:0_220)
                     199k       7736                  !presenceOf(copy_bus_parking:12_223)
                     200k       7736                  !presenceOf(copy_bus_parking:0_223)
 ! Time = 97.92s, Average fail depth = 285, Memory usage = 476.1 MB
 !               Branches  Non-fixed            Branch decision
                     201k       7842                   presenceOf(copy_bus_parking:29_144)
                     202k      10966        F          presenceOf(copy_trips:27_222)
                     203k      14151        F          presenceOf(copy_trips:16_222)
                     204k      14151        F          presenceOf(copy_trips:2_222)
                     205k      14151        F          presenceOf(copy_trips:21_222)
                     206k      14157                  !presenceOf(copy_bus_parking:12_220)
                     207k      14154        F          presenceOf(copy_trips:17_222)
                     208k      14151        F          presenceOf(copy_trips:29_222)
                     209k      14151        F          presenceOf(copy_trips:2_222)
                     210k      14154        F         !presenceOf(copy_bus_parking:15_221)
                     211k      14157        F          presenceOf(copy_trips:15_222)
                     212k      14154        F          presenceOf(copy_trips:26_222)
                     213k      14151        F         !presenceOf(copy_bus_parking:15_221)
                     214k      14151        F          presenceOf(copy_trips:22_222)
                     215k      14154                   presenceOf(copy_trips:13_32)
                     216k      12837        F          presenceOf(copy_trips:3_90)
                     217k       9544            268  = endOf(start_parking:25)
                     218k      11686        F         !presenceOf(copy_trips:2_163)
                     219k      11686                   presenceOf(copy_trips:0_62)
                     220k      17047        F          presenceOf(copy_trips:14_67)
 ! Time = 105.73s, Average fail depth = 285, Memory usage = 483.9 MB
 !               Branches  Non-fixed            Branch decision
                     221k      17038                  !presenceOf(copy_trips:29_37)
                     222k      17041        F          presenceOf(copy_trips:29_37)
                     223k       7730                   presenceOf(copy_lane_parking:2_120)
                     224k      14160                  !presenceOf(copy_bus_parking:4_222)
                     225k      14154                  !presenceOf(copy_bus_parking:14_222)
                     226k      14151                  !presenceOf(copy_bus_parking:8_222)
                     227k      14151        F          presenceOf(copy_trips:25_221)
                     228k      14151                  !presenceOf(copy_bus_parking:8_221)
                     229k      14130                  !presenceOf(copy_bus_parking:1_221)
                     230k      14145                  !presenceOf(copy_bus_parking:17_221)
                     231k      14133        F          presenceOf(copy_bus_parking:16_222)
                     232k      14148        F          presenceOf(copy_bus_parking:16_222)
                     233k      14145        F          presenceOf(copy_trips:20_220)
                     234k      14145                  !presenceOf(copy_bus_parking:6_221)
                     235k      14139        F          presenceOf(copy_trips:4_220)
                     236k      14130                  !presenceOf(copy_bus_parking:27_221)
                     237k      14130                  !presenceOf(copy_bus_parking:8_221)
                     238k      14130                  !presenceOf(copy_bus_parking:11_221)
                     239k      14133                  !presenceOf(copy_bus_parking:7_221)
                     240k      14148        F          presenceOf(copy_trips:11_220)
 ! Time = 112.55s, Average fail depth = 286, Memory usage = 483.9 MB
 !               Branches  Non-fixed            Branch decision
                     241k      14151                  !presenceOf(copy_trips:6_222)
                     242k      14148                   presenceOf(copy_bus_parking:29_75)
                     243k      13568                  !presenceOf(copy_bus_parking:23_221)
                     244k      14154                   presenceOf(copy_trips:16_222)
                     245k      14151        F          presenceOf(copy_trips:21_221)
                     246k      14148        F          presenceOf(copy_trips:20_222)
                     247k      14151                   presenceOf(copy_trips:19_222)
                     248k      14148        F          presenceOf(copy_trips:25_222)
                     249k      14148        F          presenceOf(copy_trips:8_222)
                     250k      14154        F          presenceOf(copy_trips:13_222)
                     251k      14151        F         !presenceOf(copy_trips:21_221)
                     252k      14151        F         !presenceOf(copy_trips:21_221)
                     253k      14151                  !presenceOf(copy_bus_parking:10_220)
                     254k      14151                   presenceOf(copy_trips:18_222)
                     255k      14151        F         !presenceOf(copy_trips:21_221)
                     256k      14151                   presenceOf(copy_trips:10_222)
                     257k      14148        F          presenceOf(copy_trips:20_63)
                     258k       7842                  !presenceOf(copy_bus_parking:8_150)
                     259k       7842                   presenceOf(copy_lane_parking:0_77)
                     260k      17176                   presenceOf(copy_trips:29_32)
 ! Time = 120.79s, Average fail depth = 287, Memory usage = 483.9 MB
 !               Branches  Non-fixed            Branch decision
                     261k      14151                   presenceOf(copy_trips:0_220)
                     262k      11240                   presenceOf(copy_lane_parking:3_21)
                     263k       7842        F          presenceOf(copy_trips:4_2)
                     264k      12870                   presenceOf(copy_bus_parking:7_4)
                     265k      12702        F          presenceOf(copy_trips:16_10)
                     266k      12779                  !presenceOf(copy_bus_parking:12_63)
                     267k      12702                  !presenceOf(copy_trips:15_10)
                     268k      12710        F          presenceOf(copy_trips:6_2)
                     269k      12710        F          presenceOf(copy_bus_parking:3_63)
                     270k      12784        F          presenceOf(copy_bus_parking:9_4)
                     271k      12870        F          presenceOf(copy_bus_parking:16_0)
                     272k      12839                  !presenceOf(copy_bus_parking:4_63)
                     273k      12702        F          presenceOf(copy_trips:12_2)
                     274k      12702        F          presenceOf(copy_trips:18_2)
                     275k      12779                  !presenceOf(copy_bus_parking:18_4)
                     276k      12871        F         !presenceOf(copy_bus_parking:16_0)
                     277k      12887                  !presenceOf(copy_trips:3_2)
                     278k      12705                   presenceOf(copy_bus_parking:13_63)
                     279k      12705                  !presenceOf(copy_bus_parking:10_4)
                     280k      12787        F          presenceOf(copy_bus_parking:1_63)
 ! Time = 126.75s, Average fail depth = 289, Memory usage = 483.9 MB
 !               Branches  Non-fixed            Branch decision
                     281k      12704        F         !presenceOf(copy_bus_parking:0_0)
                     282k      12788                   presenceOf(copy_trips:1_2)
                     283k      12887                   presenceOf(copy_trips:7_2)
                     284k      12887        F         !presenceOf(copy_bus_parking:0_0)
                     285k      12796                  !presenceOf(copy_bus_parking:16_0)
                     286k      12715                   presenceOf(copy_bus_parking:10_4)
                     287k      12715        F          presenceOf(copy_trips:3_10)
                     288k      12715                   presenceOf(copy_trips:13_2)
                     289k      12887        F         !presenceOf(copy_bus_parking:0_0)
                     290k      12790        F          presenceOf(copy_bus_parking:9_4)
                     291k      12787        F          presenceOf(copy_bus_parking:17_4)
                     292k      12709        F         !presenceOf(copy_bus_parking:0_0)
                     293k      12705                  !presenceOf(copy_bus_parking:15_4)
                     294k      12703        F         !presenceOf(copy_bus_parking:16_0)
                     295k      12787        F          presenceOf(copy_trips:0_2)
                     296k      12889        F          presenceOf(copy_trips:6_2)
                     297k      12888        F          presenceOf(copy_bus_parking:16_0)
                     298k      12888                   presenceOf(copy_bus_parking:13_4)
                     299k      12888                   presenceOf(copy_trips:22_2)
                     300k      12717                  !presenceOf(copy_bus_parking:3_4)
 ! Time = 132.50s, Average fail depth = 291, Memory usage = 483.9 MB
 !               Branches  Non-fixed            Branch decision
                     301k      12716                   presenceOf(copy_trips:2_2)
                     302k      12790                  !presenceOf(copy_bus_parking:12_63)
                     303k      12716        F          presenceOf(copy_bus_parking:12_63)
                     304k      12790        F         !presenceOf(copy_bus_parking:0_0)
                     305k      12888                  !presenceOf(copy_bus_parking:28_4)
                     306k      12796        F         !presenceOf(copy_bus_parking:0_0)
                     307k      12708        F          presenceOf(copy_bus_parking:11_4)
                     308k      12708                  !presenceOf(copy_trips:3_2)
                     309k      12708        F          presenceOf(copy_bus_parking:0_0)
                     310k      12715        F          presenceOf(copy_trips:18_2)
                     311k      12790                   presenceOf(copy_bus_parking:10_4)
                     312k      12708        F          presenceOf(copy_bus_parking:9_4)
                     313k      12708        F         !presenceOf(copy_bus_parking:0_0)
                     314k      12708        F          presenceOf(copy_trips:4_10)
                     315k      12857                   presenceOf(copy_lane_parking:3_159)
                     316k      13111        F          presenceOf(copy_trips:8_1)
                     317k      13111                   presenceOf(copy_lane_parking:0_152)
                     318k       8304        F          presenceOf(copy_bus_parking:16_150)
                     319k       7615                   presenceOf(copy_lane_parking:3_223)
                     320k      17046                  !presenceOf(copy_trips:23_63)
 ! Time = 139.81s, Average fail depth = 292, Memory usage = 483.9 MB
 !               Branches  Non-fixed            Branch decision
                     321k      15433           1139  = startOf(charge:29_42)
                     322k       5565                  !presenceOf(copy_trips:0_38)
                     323k       8654           2173  = startOf(charge:8_96)
 *                   323k  141.95s                   -
 ! ----------------------------------------------------------------------------
 ! Search completed, 1 solution found.
 ! ----------------------------------------------------------------------------
 ! Number of branches     : 323948
 ! Number of fails        : 141689
 ! Total memory usage     : 540.9 MB (527.1 MB CP Optimizer + 13.7 MB Concert)
 ! Time spent in solve    : 141.96s (140.46s engine + 1.50s extraction)
 ! Search speed (br. / s) : 2306.3
 ! ----------------------------------------------------------------------------
